DIMENSION :21
NODE_COORD_SECTION
1 68.63170674302884 -19.75924452064855
2 -10.3369240084034 92.0953343828744
3 -78.46938345507625 10.16875307814982
4 62.11300906952428 -10.07744937789434
5 -64.80086190667365 91.0219006649325
6 21.336981643458515 -48.29895480105195
7 63.22205866598435 -95.1380321097151
8 -66.16398991239114 16.982128425328142
9 -65.37322188832964 81.67402836231204
10 84.4217271024815 -89.76505914950978
11 30.960203824000985 -3.210918590092035
12 95.02426983364921 -48.6795826185801
13 86.8620884702174 -13.688532702522153
14 26.289176200490076 98.75578310810644
15 -22.50462692964696 36.53865525943456
16 68.78094566874654 94.74548117432767
17 13.420769862395602 -87.85001102735592
18 -46.53749458428831 80.36835898237885
19 1.9792074552415357 27.980027111699087
20 15.221232556289593 -20.024895030268112
21 53.97249687268064 -59.51869017734983
EOF
